
Gurobi 10.0.3 (win64, C++) logging started Tue Feb  6 17:39:20 2024

Set parameter TokenServer to value "141.30.89.215"
Set parameter Threads to value 8
Set parameter LazyConstraints to value 1
Set parameter PreCrush to value 1
Set parameter TimeLimit to value 28800
Set parameter SolutionLimit to value 10000
Gurobi Optimizer version 10.0.3 build v10.0.3rc0 (win64)

CPU model: AMD EPYC 7513 32-Core Processor, instruction set [SSE2|AVX|AVX2]
Thread count: 16 physical cores, 16 logical processors, using up to 8 threads

Optimize a model with 137 rows, 256 columns and 720 nonzeros
Model fingerprint: 0x05567875
Variable types: 0 continuous, 256 integer (256 binary)
Coefficient statistics:
  Matrix range     [1e+00, 1e+00]
  Objective range  [8e+00, 6e+01]
  Bounds range     [1e+00, 1e+00]
  RHS range        [1e+00, 3e+00]

User MIP start produced solution with objective 282.334 (0.00s)
Loaded user MIP start with objective 282.334

Presolve removed 1 rows and 16 columns
Presolve time: 0.00s
Presolved: 136 rows, 240 columns, 675 nonzeros
Variable types: 0 continuous, 240 integer (240 binary)

Root relaxation: objective 2.487960e+02, 55 iterations, 0.00 seconds (0.00 work units)

    Nodes    |    Current Node    |     Objective Bounds      |     Work
 Expl Unexpl |  Obj  Depth IntInf | Incumbent    BestBd   Gap | It/Node Time

     0     0  248.79604    0    -  282.33413  248.79604  11.9%     -    0s
     0     0  250.13267    0   12  282.33413  250.13267  11.4%     -    0s
     0     0  255.78356    0   32  282.33413  255.78356  9.40%     -    0s
     0     0  257.54111    0   38  282.33413  257.54111  8.78%     -    0s
     0     0  260.71891    0   28  282.33413  260.71891  7.66%     -    0s
     0     0  262.29156    0    -  282.33413  262.29156  7.10%     -    0s
     0     0  263.75365    0    -  282.33413  263.75365  6.58%     -    0s
     0     0  264.96427    0   36  282.33413  264.96427  6.15%     -    0s
     0     0  267.53886    0    -  282.33413  267.53886  5.24%     -    0s
     0     0  267.57793    0   30  282.33413  267.57793  5.23%     -    0s
     0     0  268.42913    0   36  282.33413  268.42913  4.93%     -    0s
     0     0  268.59142    0   41  282.33413  268.59142  4.87%     -    0s
     0     0  269.45132    0   44  282.33413  269.45132  4.56%     -    0s
     0     0  269.45132    0    -  282.33413  269.45132  4.56%     -    0s
     0     0  269.45132    0    -  282.33413  269.45132  4.56%     -    0s
     0     0  269.45132    0   32  282.33413  269.45132  4.56%     -    0s
     0     0  269.45132    0   30  282.33413  269.45132  4.56%     -    0s
     0     0  269.45132    0   36  282.33413  269.45132  4.56%     -    0s
     0     0  269.78846    0   32  282.33413  269.78846  4.44%     -    0s
     0     0  269.83913    0   42  282.33413  269.83913  4.43%     -    0s
     0     0  270.11436    0   32  282.33413  270.11436  4.33%     -    0s
     0     0  270.26035    0   47  282.33413  270.26035  4.28%     -    0s
     0     0  270.26035    0   42  282.33413  270.26035  4.28%     -    0s
     0     2  270.26035    0   42  282.33413  270.26035  4.28%     -    0s
H    5     7                     279.6017426  270.57106  3.23%  16.4    0s
*  180    18              21     278.9853564  272.40943  2.36%  11.1    1s
*  315    28              14     278.9849406  272.53488  2.31%  10.8    1s

Cutting planes:
  User: 209
  MIR: 5
  StrongCG: 1
  Zero half: 2
  Lazy constraints: 36

Explored 414 nodes (4907 simplex iterations) in 1.09 seconds (0.15 work units)
Thread count was 8 (of 16 available processors)

Solution count 4: 278.985 278.985 279.602 282.334 

Optimal solution found (tolerance 1.00e-04)
Best objective 2.789849406064e+02, best bound 2.789849406064e+02, gap 0.0000%

User-callback calls 1184, time in user-callback 0.87 sec
### START EXACT APPROACH ###
ProblemVariant: 6
### START PREPROCESSING ###
## Start infeasible path procedure ## 
Deleted arcs: 0
Infeasible tail paths: 0
Infeasible 2-node combinations: 0
Deleted arcs: 0
Infeasible tail paths: 0
Infeasible 2-node combinations: 0
## Start start solution procedure ##
Start solution with 3 Vehicles and total costs 282.334 in 0.0018334 s.
### END PREPROCESSING ###
Route 0 0-6-14-13-4-5-0 : weight util 0.988889 | volume util 0.855733 | 
Route 1 0-7-8-3-2-0 : weight util 0.977778 | volume util 0.472578 | 
Route 2 0-12-15-10-9-11-1-0 : weight util 0.900000 | volume util 0.813378 | 
